data;


param FN:= 0;
param D:= 100;
param U_Original:=
         1         1       -4.739252e-01
         2         1        6.393024e-01
         3         1        1.230213e+00
         4         1        6.193448e-01
         5         1        9.515181e-01
         6         1       -1.276410e+00
         7         1        2.946367e-01
         8         1       -2.526301e-01
         9         1       -2.276244e-01
        10         1       -1.998856e+00
        11         1        2.171315e-02
        12         1        4.120713e-01
        13         1        3.056301e+00
        14         1       -6.066682e-01
        15         1        1.533220e-01
        16         1        3.246150e-01
        17         1        1.442178e+00
        18         1       -4.678682e-01
        19         1        5.777284e-01
        20         1       -3.241734e-01
        21         1        6.599145e-01
        22         1       -1.394288e-01
        23         1        3.079528e-02
        24         1       -7.735141e-01
        25         1       -4.369859e-01
        26         1       -1.513824e+00
        27         1       -1.975092e+00
        28         1       -1.295901e-01
        29         1       -6.488022e-01
        30         1        1.959384e+00
        31         1       -1.442855e+00
        32         1       -7.586719e-01
        33         1        1.310981e+00
        34         1        2.418981e+00
        35         1        1.184159e+00
        36         1       -1.617465e-01
        37         1        3.707731e-01
        38         1       -1.696498e+00
        39         1        4.267748e-01
        40         1        1.685199e+00
        41         1       -1.172525e+00
        42         1       -1.058654e+00
        43         1       -2.855417e-01
        44         1       -2.018154e-01
        45         1        1.378944e+00
        46         1        1.079323e+00
        47         1       -2.747355e-01
        48         1       -5.007766e-01
        49         1        3.308548e-01
        50         1        1.546956e-01
        51         1        1.110284e+00
        52         1       -7.258473e-01
        53         1       -3.436401e-01
        54         1       -1.257768e+00
        55         1        4.759338e-01
        56         1        9.148416e-01
        57         1        7.521827e-01
        58         1       -9.348549e-02
        59         1        6.117674e-01
        60         1       -1.740178e+00
        61         1        2.924088e-01
        62         1       -1.437815e+00
        63         1        2.462823e-01
        64         1       -7.356857e-01
        65         1       -2.821833e-01
        66         1        5.696089e-01
        67         1        7.292339e-01
        68         1       -6.189499e-01
        69         1       -1.201820e+00
        70         1       -1.095551e+00
        71         1        2.450982e+00
        72         1       -1.879518e+00
        73         1       -9.091576e-01
        74         1       -1.349114e+00
        75         1       -3.929391e-01
        76         1        3.304214e-01
        77         1        6.030109e-01
        78         1       -5.357890e-01
        79         1       -1.007138e+00
        80         1       -9.267995e-01
        81         1        2.186697e-01
        82         1       -1.540611e+00
        83         1       -2.657589e-01
        84         1        5.749429e-01
        85         1        2.277412e-01
        86         1        3.392286e-01
        87         1       -4.961292e-01
        88         1       -1.345474e+00
        89         1        2.111450e+00
        90         1       -1.840377e-01
        91         1       -1.536158e+00
        92         1        1.022308e+00
        93         1        2.606023e-01
        94         1       -1.790357e+00
        95         1       -7.725496e-01
        96         1        5.408847e-01
        97         1       -2.174112e+00
        98         1       -1.144426e+00
        99         1        5.123770e-01
       100         1       -1.470664e-01
         1         2       -1.420090e-01
         2         2       -4.039470e-01
         3         2       -8.336901e-01
         4         2        8.878806e-02
         5         2       -1.385904e-01
         6         2        1.031412e+00
         7         2       -2.607799e+00
         8         2       -2.677697e+00
         9         2       -5.619914e-01
        10         2       -3.313406e-01
        11         2        7.448874e-01
        12         2       -7.757110e-01
        13         2        1.491235e-01
        14         2        1.361811e-01
        15         2        8.961971e-01
        16         2       -1.602552e-03
        17         2        3.858215e-01
        18         2        6.892737e-01
        19         2        6.386950e-02
        20         2       -4.913880e-01
        21         2        6.328260e-01
        22         2       -1.619727e+00
        23         2       -3.779355e-01
        24         2        1.199755e+00
        25         2       -1.089869e+00
        26         2        2.029260e+00
        27         2       -1.625256e+00
        28         2        6.403861e-01
        29         2       -1.985774e+00
        30         2       -1.871655e+00
        31         2       -1.782768e-01
        32         2        1.581076e+00
        33         2       -1.429133e-02
        34         2       -7.480564e-01
        35         2        2.290212e-01
        36         2       -1.140872e+00
        37         2        1.500031e+00
        38         2        1.510631e+00
        39         2       -1.148448e+00
        40         2        8.961903e-01
        41         2        3.517393e-01
        42         2       -8.997029e-01
        43         2       -6.938633e-01
        44         2       -4.220074e-01
        45         2        1.941436e-01
        46         2        1.330748e-01
        47         2       -3.005690e-01
        48         2       -1.052699e-01
        49         2        1.041646e+00
        50         2        1.452682e+00
        51         2       -2.790431e-01
        52         2       -1.047362e+00
        53         2        4.577787e-01
        54         2       -2.276908e-01
        55         2        7.533653e-01
        56         2       -1.864127e-01
        57         2        4.558350e-01
        58         2        1.725322e+00
        59         2        8.094998e-01
        60         2        4.489697e-01
        61         2       -4.957725e-01
        62         2        5.367243e-01
        63         2       -6.516064e-01
        64         2        4.613456e-01
        65         2        4.203635e-02
        66         2       -2.174201e+00
        67         2       -2.560049e-01
        68         2       -1.607630e+00
        69         2       -1.378378e+00
        70         2       -6.250056e-01
        71         2        6.419160e-02
        72         2        9.955603e-01
        73         2       -5.332694e-01
        74         2        2.225167e+00
        75         2        2.403721e+00
        76         2       -7.709272e-01
        77         2       -4.522906e-01
        78         2       -8.031047e-01
        79         2       -5.259878e-01
        80         2       -1.172850e+00
        81         2       -1.031998e-01
        82         2        4.785555e-01
        83         2       -1.020254e+00
        84         2       -7.184129e-01
        85         2        5.076526e-01
        86         2       -5.444964e-01
        87         2        1.482381e-01
        88         2       -4.198131e-01
        89         2        2.981200e-01
        90         2        1.804303e+00
        91         2        5.590686e-02
        92         2        9.612349e-01
        93         2       -3.021426e-01
        94         2        6.969266e-02
        95         2        1.346644e+00
        96         2        2.186284e+00
        97         2        1.832231e+00
        98         2        5.573716e-01
        99         2        1.505418e+00
       100         2       -2.418431e+00
         1         3       -5.589113e-01
         2         3        1.028208e+00
         3         3       -2.125173e-01
         4         3        6.554968e-01
         5         3        4.105126e-01
         6         3        7.222864e-01
         7         3       -4.340649e-01
         8         3        1.185758e+00
         9         3       -4.938388e-01
        10         3        1.349711e+00
        11         3       -5.585068e-01
        12         3       -4.372561e-01
        13         3        6.318632e-01
        14         3        1.132851e-01
        15         3        1.553864e-01
        16         3        2.493727e+00
        17         3        1.083513e+00
        18         3        4.667075e-02
        19         3        1.103489e+00
        20         3       -1.700014e+00
        21         3        9.570732e-01
        22         3        2.807619e-02
        23         3       -1.387190e-01
        24         3        1.156146e+00
        25         3       -1.002839e+00
        26         3       -8.410513e-01
        27         3        5.929687e-01
        28         3        3.648754e-01
        29         3       -9.417348e-01
        30         3        8.528446e-02
        31         3       -1.294993e-01
        32         3       -9.538181e-01
        33         3       -2.109500e-01
        34         3       -1.489422e-01
        35         3       -4.270568e-01
        36         3        1.647399e+00
        37         3        1.508715e+00
        38         3       -1.549184e+00
        39         3       -8.083821e-01
        40         3       -1.215935e+00
        41         3       -5.934797e-01
        42         3        8.560981e-01
        43         3       -7.423624e-01
        44         3        4.930821e-01
        45         3       -7.056623e-01
        46         3        1.868950e+00
        47         3        1.100159e+00
        48         3        1.021633e+00
        49         3       -9.042668e-01
        50         3        1.377114e+00
        51         3       -4.151206e-01
        52         3        8.397825e-01
        53         3       -1.202349e+00
        54         3       -2.174022e+00
        55         3       -3.458228e-01
        56         3       -5.749198e-01
        57         3       -9.633277e-02
        58         3        9.772272e-01
        59         3        1.724745e+00
        60         3        9.445674e-01
        61         3        5.631560e-01
        62         3        2.035573e+00
        63         3       -1.449725e+00
        64         3       -7.810475e-01
        65         3        8.365102e-01
        66         3       -1.342491e+00
        67         3        1.164929e-01
        68         3        1.079580e+00
        69         3       -1.831609e+00
        70         3        1.545316e+00
        71         3       -1.089714e+00
        72         3       -8.077094e-01
        73         3        1.005192e+00
        74         3       -2.143265e-01
        75         3        5.765660e-01
        76         3       -2.245372e-01
        77         3       -9.354912e-01
        78         3       -5.098996e-01
        79         3        1.676499e+00
        80         3       -4.027309e-01
        81         3       -1.486359e+00
        82         3        1.443421e+00
        83         3       -6.666030e-01
        84         3       -2.414642e-01
        85         3       -6.440926e-02
        86         3       -3.496031e-01
        87         3        2.101447e-01
        88         3        1.528570e+00
        89         3       -3.487567e-01
        90         3       -8.427984e-01
        91         3       -3.578638e-02
        92         3       -1.252121e+00
        93         3        3.021980e-01
        94         3       -3.216389e-01
        95         3       -1.147242e+00
        96         3        8.455900e-01
        97         3       -1.633825e+00
        98         3        1.032550e+00
        99         3       -1.642962e+00
       100         3       -5.089694e-02
         1         4       -9.378305e-01
         2         4        8.331593e-01
         3         4        4.243007e-01
         4         4       -5.676016e-01
         5         4        6.489480e-01
         6         4       -6.941133e-01
         7         4       -1.770589e-01
         8         4        2.048229e-01
         9         4       -7.518976e-01
        10         4        2.964140e-01
        11         4       -8.702725e-01
        12         4        8.678390e-01
        13         4        1.259288e+00
        14         4        6.732521e-01
        15         4        1.666853e-01
        16         4        1.671239e-01
        17         4       -9.270641e-01
        18         4        7.949396e-02
        19         4        6.901535e-01
        20         4       -6.831316e-01
        21         4       -8.321701e-01
        22         4        1.089066e+00
        23         4        4.494594e-02
        24         4       -5.128942e-01
        25         4        1.388185e+00
        26         4       -1.149446e-01
        27         4       -9.308877e-01
        28         4        1.345564e+00
        29         4        6.621506e-01
        30         4        1.218660e+00
        31         4       -3.251279e-01
        32         4        7.073055e-02
        33         4       -3.005269e+00
        34         4       -1.097330e+00
        35         4       -5.767484e-01
        36         4       -6.200989e-01
        37         4        4.231312e-01
        38         4       -1.027751e+00
        39         4       -1.387212e+00
        40         4        1.092841e+00
        41         4       -8.073500e-02
        42         4        9.075535e-01
        43         4       -2.161053e+00
        44         4        9.040566e-02
        45         4       -1.494436e+00
        46         4       -7.340425e-01
        47         4       -8.301974e-01
        48         4        1.350902e+00
        49         4       -4.541568e-01
        50         4        9.821210e-01
        51         4        1.531442e+00
        52         4       -1.700002e-01
        53         4        5.371593e-01
        54         4       -1.251547e+00
        55         4        1.430361e+00
        56         4       -8.204669e-01
        57         4        1.284748e-01
        58         4        3.128739e-01
        59         4        5.266761e-02
        60         4       -6.044876e-01
        61         4       -3.098564e-01
        62         4        8.018647e-01
        63         4       -1.542230e+00
        64         4       -3.705690e-01
        65         4       -1.855791e-01
        66         4        8.351262e-01
        67         4       -8.449641e-03
        68         4        8.869986e-01
        69         4       -2.559660e-01
        70         4        8.710642e-01
        71         4        6.454076e-01
        72         4       -1.202267e+00
        73         4        3.528463e-01
        74         4        3.728040e-01
        75         4        1.314604e+00
        76         4        1.824710e+00
        77         4       -2.451083e-01
        78         4       -7.288908e-01
        79         4       -6.048929e-02
        80         4       -3.919479e-01
        81         4       -6.089031e-01
        82         4       -6.917692e-01
        83         4        8.286519e-01
        84         4        3.108319e-01
        85         4        4.528474e-01
        86         4        2.322641e-01
        87         4       -3.140202e-01
        88         4        1.542168e+00
        89         4       -4.312064e-01
        90         4       -8.840404e-01
        91         4        6.841025e-01
        92         4       -1.935727e+00
        93         4        1.630866e+00
        94         4        6.378778e-01
        95         4       -1.533994e+00
        96         4        7.551917e-02
        97         4        9.507536e-01
        98         4        7.030320e-01
        99         4       -9.476931e-01
       100         4       -8.335178e-01
         1         5       -1.975758e-01
         2         5       -6.291849e-01
         3         5        2.653389e+00
         4         5       -4.034513e-02
         5         5        6.954401e-01
         6         5       -1.022280e+00
         7         5        1.330672e-01
         8         5        4.082432e-01
         9         5        6.776144e-02
        10         5       -2.076052e+00
        11         5       -7.478992e-01
        12         5       -8.076589e-01
        13         5        9.091210e-01
        14         5       -4.383806e-01
        15         5        1.999051e-01
        16         5       -1.078305e+00
        17         5        8.786353e-01
        18         5       -8.401643e-01
        19         5       -1.169002e+00
        20         5       -7.223434e-01
        21         5       -4.259536e-01
        22         5        9.302535e-01
        23         5       -6.630291e-01
        24         5        2.031139e-01
        25         5        2.013651e+00
        26         5       -1.268342e+00
        27         5       -5.884823e-02
        28         5        3.929510e-02
        29         5        7.781094e-01
        30         5       -5.183322e-01
        31         5        5.543258e-01
        32         5        4.381783e-01
        33         5        5.948340e-01
        34         5       -3.757104e-01
        35         5       -8.822989e-01
        36         5       -8.609688e-01
        37         5        6.529445e-01
        38         5       -4.792528e-01
        39         5        6.290173e-01
        40         5        6.831228e-01
        41         5       -1.630969e+00
        42         5        2.332618e-01
        43         5        2.766185e-01
        44         5        5.645387e-01
        45         5        1.685485e-01
        46         5        4.902661e-01
        47         5       -1.075396e+00
        48         5       -3.796952e-01
        49         5        6.898344e-01
        50         5       -4.938568e-02
        51         5       -8.687574e-01
        52         5       -4.750378e-01
        53         5        2.293991e+00
        54         5       -6.213129e-01
        55         5       -8.347107e-01
        56         5       -5.979251e-01
        57         5        9.178607e-01
        58         5       -1.424862e+00
        59         5       -9.131106e-02
        60         5       -4.442006e-01
        61         5        1.723274e+00
        62         5       -1.362772e+00
        63         5       -2.034131e-01
        64         5        2.820836e-01
        65         5        6.708401e-01
        66         5        5.616535e-01
        67         5       -1.825918e+00
        68         5       -2.213490e+00
        69         5       -1.090601e-01
        70         5        6.410426e-01
        71         5       -7.918297e-01
        72         5       -8.576027e-01
        73         5       -6.968976e-01
        74         5       -5.981660e-01
        75         5        2.460491e-01
        76         5        1.144043e+00
        77         5        8.932468e-01
        78         5       -1.715274e+00
        79         5       -7.948093e-01
        80         5       -2.436768e+00
        81         5        6.049368e-01
        82         5       -2.359285e-01
        83         5        5.975645e-01
        84         5       -6.859535e-01
        85         5        3.992919e-01
        86         5        8.393882e-01
        87         5       -2.050068e+00
        88         5        6.491524e-01
        89         5        4.219891e-01
        90         5       -9.515637e-01
        91         5        8.854836e-01
        92         5        1.175135e+00
        93         5        1.730442e+00
        94         5        3.481226e-01
        95         5       -8.460284e-01
        96         5       -2.465992e+00
        97         5       -1.304773e+00
        98         5       -8.682969e-01
        99         5       -1.775065e+00
       100         5       -6.746100e-01
;
param X_Original:=
    1       -5.968058e-01
    2        5.835093e-01
    3       -1.529783e+00
    4        2.455025e+00
    5        9.799537e-01
    6       -2.778947e-01
    7        1.094874e-01
    8       -2.402818e-01
    9       -4.950972e-01
   10        1.858714e+00
   11        6.029619e-01
   12       -4.660257e-01
   13       -2.322832e-01
   14       -1.257763e+00
   15       -4.622926e-01
   16        8.565466e-01
   17        1.293864e-01
   18        1.023479e+00
   19        3.215913e+00
   20       -1.494170e+00
   21        5.821168e-01
   22       -2.957986e-01
   23       -8.945388e-01
   24        1.188683e+00
   25       -2.005518e+00
   26       -1.438622e+00
   27       -1.021169e+00
   28        1.710091e+00
   29       -6.965090e-01
   30        3.863459e+00
   31       -6.813645e-01
   32       -5.085478e+00
   33       -2.238721e+00
   34        1.211780e+00
   35        9.868245e-01
   36       -5.541467e-01
   37       -1.066258e+00
   38       -1.211281e-01
   39       -1.391511e-03
   40        5.506145e-01
   41       -7.096642e-01
   42       -4.333142e-01
   43       -2.561527e-01
   44        1.163371e+00
   45        7.227894e-01
   46       -1.024758e+00
   47        1.415714e+00
   48        1.007008e+00
   49       -3.100597e+00
   50        1.966973e+00
   51        2.137672e-01
   52        2.611625e+00
   53        6.112327e-01
   54       -3.250846e-01
   55       -8.315745e-01
   56        7.264369e-02
   57       -1.717181e+00
   58       -5.574393e-01
   59        4.349724e+00
   60        1.598195e+00
   61       -1.480521e+00
   62        3.080256e-01
   63        8.439757e-01
   64       -3.969291e-01
   65        1.175730e+00
   66        6.328375e-02
   67        1.225541e+00
   68       -5.737627e-01
   69        4.018174e-01
   70        1.548380e+00
   71        6.441564e-01
   72        5.412033e-01
   73       -7.626396e-01
   74       -4.534834e+00
   75       -1.236582e-01
   76        9.664332e-02
   77       -1.022375e+00
   78       -4.491562e-01
   79       -1.932005e+00
   80        5.039201e-02
   81        2.501615e-01
   82        1.453429e+00
   83       -6.634928e-01
   84        5.858991e-01
   85        8.411811e-01
   86       -2.659126e-02
   87       -1.538693e+00
   88       -1.121923e+00
   89       -1.546546e+00
   90       -3.039879e-01
   91       -2.026527e-01
   92       -3.207457e-02
   93       -4.305028e-02
   94       -2.730774e-02
   95        3.808418e-01
   96        9.172845e-02
   97       -1.007611e+00
   98       -2.282497e+00
   99       -5.242444e-01
  100       -6.514892e-01
;
param outliervec_original :=
    1    1
    2    1
    3    1
    4    0
    5    1
    6    1
    7    1
    8    1
    9    1
   10    1
   11    1
   12    1
   13    1
   14    1
   15    0
   16    1
   17    1
   18    1
   19    0
   20    1
   21    1
   22    1
   23    1
   24    0
   25    1
   26    1
   27    1
   28    1
   29    1
   30    0
   31    1
   32    0
   33    1
   34    1
   35    1
   36    1
   37    1
   38    1
   39    1
   40    1
   41    1
   42    1
   43    1
   44    1
   45    1
   46    1
   47    1
   48    1
   49    0
   50    0
   51    1
   52    1
   53    1
   54    1
   55    1
   56    1
   57    1
   58    1
   59    0
   60    1
   61    1
   62    1
   63    1
   64    1
   65    1
   66    1
   67    0
   68    1
   69    1
   70    1
   71    1
   72    1
   73    1
   74    0
   75    1
   76    0
   77    1
   78    1
   79    1
   80    1
   81    1
   82    1
   83    1
   84    0
   85    1
   86    0
   87    1
   88    1
   89    1
   90    1
   91    1
   92    1
   93    1
   94    1
   95    1
   96    1
   97    1
   98    1
   99    1
  100    1
;
param d:= 57;
param r:=5;
param p:=0.860000;
param M:=1000;
param U:=
         1         1       -4.739252e-01
         2         1        6.193448e-01
         3         1        9.515181e-01
         4         1       -1.276410e+00
         5         1       -2.276244e-01
         6         1       -1.998856e+00
         7         1        4.120713e-01
         8         1       -6.066682e-01
         9         1        1.533220e-01
        10         1        5.777284e-01
        11         1       -3.241734e-01
        12         1        6.599145e-01
        13         1       -1.394288e-01
        14         1        3.079528e-02
        15         1       -7.735141e-01
        16         1       -4.369859e-01
        17         1       -6.488022e-01
        18         1        1.959384e+00
        19         1       -1.442855e+00
        20         1       -7.586719e-01
        21         1        2.418981e+00
        22         1        1.184159e+00
        23         1        4.267748e-01
        24         1       -1.172525e+00
        25         1       -2.855417e-01
        26         1       -2.018154e-01
        27         1        1.378944e+00
        28         1       -2.747355e-01
        29         1       -5.007766e-01
        30         1        3.308548e-01
        31         1        1.546956e-01
        32         1        1.110284e+00
        33         1       -7.258473e-01
        34         1        4.759338e-01
        35         1        9.148416e-01
        36         1        7.521827e-01
        37         1       -9.348549e-02
        38         1        6.117674e-01
        39         1       -1.740178e+00
        40         1       -2.821833e-01
        41         1        5.696089e-01
        42         1        7.292339e-01
        43         1       -1.095551e+00
        44         1        2.450982e+00
        45         1       -1.349114e+00
        46         1        3.304214e-01
        47         1        6.030109e-01
        48         1       -5.357890e-01
        49         1       -9.267995e-01
        50         1       -1.540611e+00
        51         1       -2.657589e-01
        52         1        5.749429e-01
        53         1        2.277412e-01
        54         1        3.392286e-01
        55         1       -1.536158e+00
        56         1        2.606023e-01
        57         1        5.408847e-01
         1         2       -1.420090e-01
         2         2        8.878806e-02
         3         2       -1.385904e-01
         4         2        1.031412e+00
         5         2       -5.619914e-01
         6         2       -3.313406e-01
         7         2       -7.757110e-01
         8         2        1.361811e-01
         9         2        8.961971e-01
        10         2        6.386950e-02
        11         2       -4.913880e-01
        12         2        6.328260e-01
        13         2       -1.619727e+00
        14         2       -3.779355e-01
        15         2        1.199755e+00
        16         2       -1.089869e+00
        17         2       -1.985774e+00
        18         2       -1.871655e+00
        19         2       -1.782768e-01
        20         2        1.581076e+00
        21         2       -7.480564e-01
        22         2        2.290212e-01
        23         2       -1.148448e+00
        24         2        3.517393e-01
        25         2       -6.938633e-01
        26         2       -4.220074e-01
        27         2        1.941436e-01
        28         2       -3.005690e-01
        29         2       -1.052699e-01
        30         2        1.041646e+00
        31         2        1.452682e+00
        32         2       -2.790431e-01
        33         2       -1.047362e+00
        34         2        7.533653e-01
        35         2       -1.864127e-01
        36         2        4.558350e-01
        37         2        1.725322e+00
        38         2        8.094998e-01
        39         2        4.489697e-01
        40         2        4.203635e-02
        41         2       -2.174201e+00
        42         2       -2.560049e-01
        43         2       -6.250056e-01
        44         2        6.419160e-02
        45         2        2.225167e+00
        46         2       -7.709272e-01
        47         2       -4.522906e-01
        48         2       -8.031047e-01
        49         2       -1.172850e+00
        50         2        4.785555e-01
        51         2       -1.020254e+00
        52         2       -7.184129e-01
        53         2        5.076526e-01
        54         2       -5.444964e-01
        55         2        5.590686e-02
        56         2       -3.021426e-01
        57         2        2.186284e+00
         1         3       -5.589113e-01
         2         3        6.554968e-01
         3         3        4.105126e-01
         4         3        7.222864e-01
         5         3       -4.938388e-01
         6         3        1.349711e+00
         7         3       -4.372561e-01
         8         3        1.132851e-01
         9         3        1.553864e-01
        10         3        1.103489e+00
        11         3       -1.700014e+00
        12         3        9.570732e-01
        13         3        2.807619e-02
        14         3       -1.387190e-01
        15         3        1.156146e+00
        16         3       -1.002839e+00
        17         3       -9.417348e-01
        18         3        8.528446e-02
        19         3       -1.294993e-01
        20         3       -9.538181e-01
        21         3       -1.489422e-01
        22         3       -4.270568e-01
        23         3       -8.083821e-01
        24         3       -5.934797e-01
        25         3       -7.423624e-01
        26         3        4.930821e-01
        27         3       -7.056623e-01
        28         3        1.100159e+00
        29         3        1.021633e+00
        30         3       -9.042668e-01
        31         3        1.377114e+00
        32         3       -4.151206e-01
        33         3        8.397825e-01
        34         3       -3.458228e-01
        35         3       -5.749198e-01
        36         3       -9.633277e-02
        37         3        9.772272e-01
        38         3        1.724745e+00
        39         3        9.445674e-01
        40         3        8.365102e-01
        41         3       -1.342491e+00
        42         3        1.164929e-01
        43         3        1.545316e+00
        44         3       -1.089714e+00
        45         3       -2.143265e-01
        46         3       -2.245372e-01
        47         3       -9.354912e-01
        48         3       -5.098996e-01
        49         3       -4.027309e-01
        50         3        1.443421e+00
        51         3       -6.666030e-01
        52         3       -2.414642e-01
        53         3       -6.440926e-02
        54         3       -3.496031e-01
        55         3       -3.578638e-02
        56         3        3.021980e-01
        57         3        8.455900e-01
         1         4       -9.378305e-01
         2         4       -5.676016e-01
         3         4        6.489480e-01
         4         4       -6.941133e-01
         5         4       -7.518976e-01
         6         4        2.964140e-01
         7         4        8.678390e-01
         8         4        6.732521e-01
         9         4        1.666853e-01
        10         4        6.901535e-01
        11         4       -6.831316e-01
        12         4       -8.321701e-01
        13         4        1.089066e+00
        14         4        4.494594e-02
        15         4       -5.128942e-01
        16         4        1.388185e+00
        17         4        6.621506e-01
        18         4        1.218660e+00
        19         4       -3.251279e-01
        20         4        7.073055e-02
        21         4       -1.097330e+00
        22         4       -5.767484e-01
        23         4       -1.387212e+00
        24         4       -8.073500e-02
        25         4       -2.161053e+00
        26         4        9.040566e-02
        27         4       -1.494436e+00
        28         4       -8.301974e-01
        29         4        1.350902e+00
        30         4       -4.541568e-01
        31         4        9.821210e-01
        32         4        1.531442e+00
        33         4       -1.700002e-01
        34         4        1.430361e+00
        35         4       -8.204669e-01
        36         4        1.284748e-01
        37         4        3.128739e-01
        38         4        5.266761e-02
        39         4       -6.044876e-01
        40         4       -1.855791e-01
        41         4        8.351262e-01
        42         4       -8.449641e-03
        43         4        8.710642e-01
        44         4        6.454076e-01
        45         4        3.728040e-01
        46         4        1.824710e+00
        47         4       -2.451083e-01
        48         4       -7.288908e-01
        49         4       -3.919479e-01
        50         4       -6.917692e-01
        51         4        8.286519e-01
        52         4        3.108319e-01
        53         4        4.528474e-01
        54         4        2.322641e-01
        55         4        6.841025e-01
        56         4        1.630866e+00
        57         4        7.551917e-02
         1         5       -1.975758e-01
         2         5       -4.034513e-02
         3         5        6.954401e-01
         4         5       -1.022280e+00
         5         5        6.776144e-02
         6         5       -2.076052e+00
         7         5       -8.076589e-01
         8         5       -4.383806e-01
         9         5        1.999051e-01
        10         5       -1.169002e+00
        11         5       -7.223434e-01
        12         5       -4.259536e-01
        13         5        9.302535e-01
        14         5       -6.630291e-01
        15         5        2.031139e-01
        16         5        2.013651e+00
        17         5        7.781094e-01
        18         5       -5.183322e-01
        19         5        5.543258e-01
        20         5        4.381783e-01
        21         5       -3.757104e-01
        22         5       -8.822989e-01
        23         5        6.290173e-01
        24         5       -1.630969e+00
        25         5        2.766185e-01
        26         5        5.645387e-01
        27         5        1.685485e-01
        28         5       -1.075396e+00
        29         5       -3.796952e-01
        30         5        6.898344e-01
        31         5       -4.938568e-02
        32         5       -8.687574e-01
        33         5       -4.750378e-01
        34         5       -8.347107e-01
        35         5       -5.979251e-01
        36         5        9.178607e-01
        37         5       -1.424862e+00
        38         5       -9.131106e-02
        39         5       -4.442006e-01
        40         5        6.708401e-01
        41         5        5.616535e-01
        42         5       -1.825918e+00
        43         5        6.410426e-01
        44         5       -7.918297e-01
        45         5       -5.981660e-01
        46         5        1.144043e+00
        47         5        8.932468e-01
        48         5       -1.715274e+00
        49         5       -2.436768e+00
        50         5       -2.359285e-01
        51         5        5.975645e-01
        52         5       -6.859535e-01
        53         5        3.992919e-01
        54         5        8.393882e-01
        55         5        8.854836e-01
        56         5        1.730442e+00
        57         5       -2.465992e+00
;

param theta:=
    1        9.924787e-01
    2       -1.111186e+00
    3        2.703449e+00
    4       -2.979359e-01
    5        5.483666e-02
;
param X_true:=
    1       -1.554972e+00
    2        2.455025e+00
    3        2.052952e+00
    4       -3.094918e-01
    5       -7.087707e-01
    6        1.831077e+00
    7       -2.140187e-01
    8       -6.717925e-01
    9       -4.622926e-01
   10        3.215913e+00
   11       -4.207696e+00
   12        2.763739e+00
   13        1.463880e+00
   14        2.575104e-02
   15        1.188683e+00
   16       -2.236946e+00
   17       -1.137901e+00
   18        3.863459e+00
   19       -1.456735e+00
   20       -5.085478e+00
   21        3.135690e+00
   22       -1.103069e-01
   23       -3.792243e-02
   24       -3.224379e+00
   25       -8.602981e-01
   26        1.605676e+00
   27       -3.003909e-01
   28        3.223919e+00
   29        1.958593e+00
   30       -3.100597e+00
   31        1.966973e+00
   32       -2.141669e-01
   33        2.738335e+00
   34       -1.771618e+00
   35       -2.275083e-01
   36       -8.367510e-03
   37        4.605974e-01
   38        4.349724e+00
   39        4.833521e-01
   40        2.026769e+00
   41       -8.661052e-01
   42        1.225541e+00
   43        3.560501e+00
   44       -8.204779e-01
   45       -4.534834e+00
   46        9.664332e-02
   47       -1.305990e+00
   48       -8.947456e-01
   49       -7.221860e-01
   50        2.034594e+00
   51       -1.146312e+00
   52        5.858991e-01
   53       -6.252188e-01
   54       -2.659126e-02
   55       -1.838735e+00
   56        1.020354e+00
   57        2.357322e-01
;
param X:=
    1       -5.968058e-01
    2        2.455025e+00
    3        9.799537e-01
    4       -2.778947e-01
    5       -4.950972e-01
    6        1.858714e+00
    7       -4.660257e-01
    8       -1.257763e+00
    9       -4.622926e-01
   10        3.215913e+00
   11       -1.494170e+00
   12        5.821168e-01
   13       -2.957986e-01
   14       -8.945388e-01
   15        1.188683e+00
   16       -2.005518e+00
   17       -6.965090e-01
   18        3.863459e+00
   19       -6.813645e-01
   20       -5.085478e+00
   21        1.211780e+00
   22        9.868245e-01
   23       -1.391511e-03
   24       -7.096642e-01
   25       -2.561527e-01
   26        1.163371e+00
   27        7.227894e-01
   28        1.415714e+00
   29        1.007008e+00
   30       -3.100597e+00
   31        1.966973e+00
   32        2.137672e-01
   33        2.611625e+00
   34       -8.315745e-01
   35        7.264369e-02
   36       -1.717181e+00
   37       -5.574393e-01
   38        4.349724e+00
   39        1.598195e+00
   40        1.175730e+00
   41        6.328375e-02
   42        1.225541e+00
   43        1.548380e+00
   44        6.441564e-01
   45       -4.534834e+00
   46        9.664332e-02
   47       -1.022375e+00
   48       -4.491562e-01
   49        5.039201e-02
   50        1.453429e+00
   51       -6.634928e-01
   52        5.858991e-01
   53        8.411811e-01
   54       -2.659126e-02
   55       -2.026527e-01
   56       -4.305028e-02
   57        9.172845e-02
;
param outliervec:=
    1    1
    2    0
    3    1
    4    1
    5    1
    6    1
    7    1
    8    1
    9    0
   10    0
   11    1
   12    1
   13    1
   14    1
   15    0
   16    1
   17    1
   18    0
   19    1
   20    0
   21    1
   22    1
   23    1
   24    1
   25    1
   26    1
   27    1
   28    1
   29    1
   30    0
   31    0
   32    1
   33    1
   34    1
   35    1
   36    1
   37    1
   38    0
   39    1
   40    1
   41    1
   42    0
   43    1
   44    1
   45    0
   46    0
   47    1
   48    1
   49    1
   50    1
   51    1
   52    0
   53    1
   54    0
   55    1
   56    1
   57    1
; 
param greedy_time :=         2.135920e-01
;